; benchmark generated from python API
(set-info :status unknown)
(declare-fun x_month () (_ BitVec 32))
(declare-fun x_year () (_ BitVec 32))
(declare-fun x_day () (_ BitVec 32))
(assert
 (let (($x4563 (or (= (_ bv4 32) x_month) (= (_ bv6 32) x_month) (= (_ bv9 32) x_month) (= (_ bv11 32) x_month))))
 (let (($x2689 (and (= (_ bv0 32) (bvsmod x_year (_ bv4 32))) (and (distinct (_ bv0 32) (bvsmod x_year (_ bv100 32))) true))))
 (let (($x412 (= (_ bv2 32) x_month)))
 (let ((?x1666 (ite $x412 (ite (or $x2689 (= (_ bv0 32) (bvsmod x_year (_ bv400 32)))) (_ bv29 32) (_ bv28 32)) (ite $x4563 (_ bv30 32) (_ bv31 32)))))
 (let (($x3321 (bvsle x_day ?x1666)))
 (let (($x713 (bvsle (_ bv1 32) x_day)))
 (let (($x4626 (bvsle (_ bv1 32) x_month)))
 (let (($x1656 (bvsge (_ bv12 32) x_month)))
 (let (($x4322 (bvsle (_ bv1901 32) x_year)))
 (or (and (= (_ bv1900 32) x_year) (bvsle (_ bv3 32) x_month) $x1656 $x713 $x3321) (and $x4322 (bvsge (_ bv2099 32) x_year) $x4626 $x1656 $x713 $x3321) (and (= (_ bv2100 32) x_year) $x4626 (bvsge (_ bv2 32) x_month) $x713 $x3321))))))))))))
(assert
 (let (($x412 (= (_ bv2 32) x_month)))
 (and (= (_ bv2020 32) x_year) $x412 (= (_ bv29 32) x_day))))
(assert
 (let ((?x2065 (bvadd x_month (bvadd (bvmul (_ bv1 32) (_ bv12 32)) (_ bv0 32)))))
(let ((?x2109 (bvsub (ite (bvuge ?x2065 (_ bv2147483648 32)) (bvsub ?x2065 (_ bv0 32)) ?x2065) (_ bv1 32))))
(let ((?x3775 (bvsmod ?x2109 (_ bv12 32))))
(let ((?x2297 (bvadd ?x3775 (_ bv1 32))))
(let (($x2650 (= (_ bv11 32) ?x2297)))
(let (($x1535 (= (_ bv9 32) ?x2297)))
(let (($x2868 (= (_ bv6 32) ?x2297)))
(let (($x2426 (= (_ bv4 32) ?x2297)))
(let ((?x2396 (bvsdiv ?x2109 (_ bv12 32))))
(let ((?x1526 (ite (and (bvuge ?x2109 (_ bv2147483648 32)) (and (distinct (_ bv0 32) ?x3775) true)) (bvsub ?x2396 (_ bv1 32)) ?x2396)))
(let ((?x1729 (bvadd x_year ?x1526)))
(let (($x1059 (or (and (= (_ bv0 32) (bvsmod ?x1729 (_ bv4 32))) (and (distinct (_ bv0 32) (bvsmod ?x1729 (_ bv100 32))) true)) (= (_ bv0 32) (bvsmod ?x1729 (_ bv400 32))))))
(let (($x3267 (= (_ bv2 32) ?x2297)))
(let ((?x3917 (ite $x3267 (ite $x1059 (_ bv29 32) (_ bv28 32)) (ite (or $x2426 $x2868 $x1535 $x2650) (_ bv30 32) (_ bv31 32)))))
(let ((?x2840 (ite (bvsgt (_ bv1 32) x_day) (_ bv1 32) (ite (bvsgt x_day ?x3917) ?x3917 x_day))))
(let ((?x650 (ite (bvsgt (_ bv1 32) ?x2840) (_ bv1 32) (ite (bvsgt ?x2840 ?x3917) ?x3917 ?x2840))))
(let ((?x3003 (ite $x3267 (ite $x1059 (_ bv31 32) (_ bv31 32)) (ite (= (_ bv1 32) ?x2297) (ite $x1059 (_ bv0 32) (_ bv0 32)) (_ bv0 32)))))
(let ((?x2847 (ite $x2426 (ite $x1059 (_ bv91 32) (_ bv90 32)) (ite (= (_ bv3 32) ?x2297) (ite $x1059 (_ bv60 32) (_ bv59 32)) ?x3003))))
(let ((?x1461 (ite $x2868 (ite $x1059 (_ bv152 32) (_ bv151 32)) (ite (= (_ bv5 32) ?x2297) (ite $x1059 (_ bv121 32) (_ bv120 32)) ?x2847))))
(let ((?x2749 (ite (= (_ bv8 32) ?x2297) (ite $x1059 (_ bv213 32) (_ bv212 32)) (ite (= (_ bv7 32) ?x2297) (ite $x1059 (_ bv182 32) (_ bv181 32)) ?x1461))))
(let ((?x2058 (ite (= (_ bv10 32) ?x2297) (ite $x1059 (_ bv274 32) (_ bv273 32)) (ite $x1535 (ite $x1059 (_ bv244 32) (_ bv243 32)) ?x2749))))
(let ((?x2810 (ite (= (_ bv12 32) ?x2297) (ite $x1059 (_ bv335 32) (_ bv334 32)) (ite $x2650 (ite $x1059 (_ bv305 32) (_ bv304 32)) ?x2058))))
(let ((?x1491 (bvadd (bvmul (_ bv365 32) (bvsub ?x1729 (_ bv1 32))) (bvsdiv (bvsub ?x1729 (_ bv1 32)) (_ bv4 32)))))
(let ((?x1657 (bvadd (bvsub ?x1491 (bvsdiv (bvsub ?x1729 (_ bv1 32)) (_ bv100 32))) (bvsdiv (bvsub ?x1729 (_ bv1 32)) (_ bv400 32)))))
(let ((?x1814 (bvadd (bvadd (bvsub (bvadd (bvadd ?x1657 ?x2810) (bvsub ?x650 (_ bv1 32))) (_ bv730179 32)) (_ bv0 32)) (_ bv730179 32))))
(let ((?x2711 (bvsmod ?x1814 (_ bv146097 32))))
(let ((?x3220 (bvsdiv ?x2711 (_ bv36524 32))))
(let ((?x3247 (ite (bvsle (_ bv4 32) ?x3220) (_ bv3 32) ?x3220)))
(let ((?x3959 (bvsub ?x2711 (bvmul ?x3247 (_ bv36524 32)))))
(let ((?x3997 (bvsmod ?x3959 (_ bv1461 32))))
(let ((?x3721 (bvsdiv ?x3997 (_ bv365 32))))
(let ((?x2285 (ite (bvsle (_ bv4 32) ?x3721) (_ bv3 32) ?x3721)))
(let ((?x4224 (bvadd (bvadd (bvmul (bvsdiv ?x1814 (_ bv146097 32)) (_ bv400 32)) (bvmul ?x3247 (_ bv100 32))) (bvmul (bvsdiv ?x3959 (_ bv1461 32)) (_ bv4 32)))))
(let ((?x2641 (bvadd (bvadd ?x4224 ?x2285) (_ bv1 32))))
(let (($x3561 (or (and (= (_ bv0 32) (bvsmod ?x2641 (_ bv4 32))) (and (distinct (_ bv0 32) (bvsmod ?x2641 (_ bv100 32))) true)) (= (_ bv0 32) (bvsmod ?x2641 (_ bv400 32))))))
(let ((?x4492 (bvsub ?x3997 (bvmul ?x2285 (_ bv365 32)))))
(let ((?x3476 (ite $x3561 (_ bv31 32) (_ bv31 32))))
(let (($x3319 (bvsge ?x4492 ?x3476)))
(let ((?x2410 (ite $x3319 (bvadd (bvsub ?x4492 ?x3476) (_ bv1 32)) (bvadd (bvsub ?x4492 (ite $x3561 (_ bv0 32) (_ bv0 32))) (_ bv1 32)))))
(let ((?x2291 (ite $x3561 (_ bv60 32) (_ bv59 32))))
(let (($x2676 (bvsge ?x4492 ?x2291)))
(let ((?x2558 (ite $x3561 (_ bv91 32) (_ bv90 32))))
(let (($x3410 (bvsge ?x4492 ?x2558)))
(let ((?x4126 (ite $x3410 (bvadd (bvsub ?x4492 ?x2558) (_ bv1 32)) (ite $x2676 (bvadd (bvsub ?x4492 ?x2291) (_ bv1 32)) ?x2410))))
(let ((?x2152 (ite $x3561 (_ bv121 32) (_ bv120 32))))
(let (($x780 (bvsge ?x4492 ?x2152)))
(let ((?x3863 (ite $x3561 (_ bv152 32) (_ bv151 32))))
(let (($x1817 (bvsge ?x4492 ?x3863)))
(let ((?x2071 (ite $x1817 (bvadd (bvsub ?x4492 ?x3863) (_ bv1 32)) (ite $x780 (bvadd (bvsub ?x4492 ?x2152) (_ bv1 32)) ?x4126))))
(let ((?x3428 (ite $x3561 (_ bv182 32) (_ bv181 32))))
(let (($x1427 (bvsge ?x4492 ?x3428)))
(let ((?x842 (ite $x3561 (_ bv213 32) (_ bv212 32))))
(let (($x3928 (bvsge ?x4492 ?x842)))
(let ((?x1414 (ite $x3928 (bvadd (bvsub ?x4492 ?x842) (_ bv1 32)) (ite $x1427 (bvadd (bvsub ?x4492 ?x3428) (_ bv1 32)) ?x2071))))
(let ((?x4590 (ite $x3561 (_ bv244 32) (_ bv243 32))))
(let (($x3049 (bvsge ?x4492 ?x4590)))
(let ((?x4457 (ite $x3561 (_ bv274 32) (_ bv273 32))))
(let (($x2204 (bvsge ?x4492 ?x4457)))
(let ((?x2943 (ite $x2204 (bvadd (bvsub ?x4492 ?x4457) (_ bv1 32)) (ite $x3049 (bvadd (bvsub ?x4492 ?x4590) (_ bv1 32)) ?x1414))))
(let ((?x1177 (ite $x3561 (_ bv305 32) (_ bv304 32))))
(let (($x1518 (bvsge ?x4492 ?x1177)))
(let ((?x1932 (ite $x3561 (_ bv335 32) (_ bv334 32))))
(let (($x4479 (bvsge ?x4492 ?x1932)))
(let ((?x3481 (ite $x4479 (bvadd (bvsub ?x4492 ?x1932) (_ bv1 32)) (ite $x1518 (bvadd (bvsub ?x4492 ?x1177) (_ bv1 32)) ?x2943))))
(let (($x1682 (= (_ bv0 32) (_ bv0 32))))
(let ((?x2193 (ite $x1817 (_ bv6 32) (ite $x780 (_ bv5 32) (ite $x3410 (_ bv4 32) (ite $x2676 (_ bv3 32) (ite $x3319 (_ bv2 32) (_ bv1 32))))))))
(let ((?x3953 (ite $x1518 (_ bv11 32) (ite $x2204 (_ bv10 32) (ite $x3049 (_ bv9 32) (ite $x3928 (_ bv8 32) (ite $x1427 (_ bv7 32) ?x2193)))))))
(and (= (_ bv2021 32) (ite $x1682 ?x1729 ?x2641)) (= (_ bv2 32) (ite $x1682 ?x2297 (ite $x4479 (_ bv12 32) ?x3953))) (= (_ bv28 32) (ite $x1682 ?x650 ?x3481)))))))))))))))))))))))))))))))))))))))))))))))))))))))))))))))))))))))
(check-sat)
